************************************************************************
file with basedata            : cm115_.bas
initial value random generator: 12958984
************************************************************************
projects                      :  1
jobs (incl. supersource/sink ):  18
horizon                       :  77
RESOURCES
  - renewable                 :  2   R
  - nonrenewable              :  2   N
  - doubly constrained        :  0   D
************************************************************************
PROJECT INFORMATION:
pronr.  #jobs rel.date duedate tardcost  MPM-Time
    1     16      0       31        4       31
************************************************************************
PRECEDENCE RELATIONS:
jobnr.    #modes  #successors   successors
   1        1          3           2   3   4
   2        1          3           5  13  17
   3        1          3           6   8  10
   4        1          3           5   7  11
   5        1          3           9  10  16
   6        1          2           9  17
   7        1          3           9  10  16
   8        1          2          12  14
   9        1          1          12
  10        1          1          15
  11        1          2          12  17
  12        1          1          15
  13        1          1          14
  14        1          2          15  16
  15        1          1          18
  16        1          1          18
  17        1          1          18
  18        1          0        
************************************************************************
REQUESTS/DURATIONS:
jobnr. mode duration  R 1  R 2  N 1  N 2
------------------------------------------------------------------------
  1      1     0       0    0    0    0
  2      1     1       3    8    0    6
  3      1     3       5    3    0    8
  4      1     5       6    6    6    0
  5      1     5       1    4    8    0
  6      1     4       8    2    5    0
  7      1     7       1    3    9    0
  8      1     5      10    4    0    7
  9      1     6       2    7    6    0
 10      1     7       2    1    6    0
 11      1     6       6    4    0    7
 12      1     4       8    9    1    0
 13      1     7       7    6    0    9
 14      1     3       9    2    0    2
 15      1     9       7    6    0    5
 16      1     1       5    4    0    8
 17      1     4       7    6    0    4
 18      1     0       0    0    0    0
************************************************************************
RESOURCEAVAILABILITIES:
  R 1  R 2  N 1  N 2
   27   20   41   56
************************************************************************
